(set-info :status unsat)
(declare-const symbol_90 (_ BitVec 32))
(declare-const symbol_32 (_ BitVec 32))
(declare-const symbol_78 (_ BitVec 32))
(declare-const symbol_125 (_ BitVec 32))
(declare-const symbol_112 (_ BitVec 32))
(declare-const symbol_73 (_ BitVec 32))
(declare-const symbol_42 (_ BitVec 32))
(declare-const symbol_118 (_ BitVec 32))
(declare-const symbol_110 (_ BitVec 32))
(declare-const symbol_45 (_ BitVec 32))
(declare-const symbol_106 (_ BitVec 32))
(declare-const symbol_131 (_ BitVec 32))
(declare-const symbol_63 (_ BitVec 32))
(declare-const symbol_116 (_ BitVec 32))
(declare-const symbol_102 (_ BitVec 32))
(declare-const symbol_60 (_ BitVec 32))
(declare-const symbol_10 (_ BitVec 32))
(declare-const symbol_84 (_ BitVec 32))
(declare-const symbol_75 (_ BitVec 32))
(declare-const symbol_135 (_ BitVec 32))
(declare-const symbol_26 (_ BitVec 32))
(declare-const symbol_28 (_ BitVec 32))
(declare-const symbol_0 (_ BitVec 32))
(declare-const symbol_104 (_ BitVec 32))
(declare-const symbol_82 (_ BitVec 32))
(declare-const symbol_92 (_ BitVec 32))
(declare-const symbol_44 (_ BitVec 32))
(declare-const symbol_96 (_ BitVec 32))
(declare-const symbol_65 (_ BitVec 32))
(declare-const symbol_36 (_ BitVec 32))
(declare-const symbol_47 (_ BitVec 32))
(declare-const symbol_108 (_ BitVec 32))
(declare-const symbol_52 (_ BitVec 32))
(declare-const symbol_16 (_ BitVec 32))
(declare-const symbol_133 (_ BitVec 32))
(declare-const symbol_61 (_ BitVec 32))
(declare-const symbol_34 (_ BitVec 32))
(declare-const symbol_3 (_ BitVec 32))
(declare-const symbol_14 (_ BitVec 32))
(declare-const symbol_24 (_ BitVec 32))
(declare-const symbol_100 (_ BitVec 32))
(declare-const symbol_57 (_ BitVec 32))
(declare-const symbol_6 (_ BitVec 32))
(declare-const symbol_1 (_ BitVec 32))
(declare-const symbol_127 (_ BitVec 32))
(declare-const symbol_22 (_ BitVec 32))
(declare-const symbol_94 (_ BitVec 32))
(declare-const symbol_67 (_ BitVec 32))
(declare-const symbol_122 (_ BitVec 32))
(declare-const symbol_80 (_ BitVec 32))
(declare-const symbol_50 (_ BitVec 32))
(declare-const symbol_18 (_ BitVec 32))
(declare-const symbol_40 (_ BitVec 32))
(declare-const symbol_30 (_ BitVec 32))
(declare-const symbol_120 (_ BitVec 32))
(declare-const symbol_86 (_ BitVec 32))
(declare-const symbol_98 (_ BitVec 32))
(declare-const symbol_89 (_ BitVec 32))
(declare-const symbol_20 (_ BitVec 32))
(declare-const symbol_53 (_ BitVec 32))
(declare-const symbol_56 (_ BitVec 32))
(declare-const symbol_39 (_ BitVec 32))
(declare-const symbol_69 (_ BitVec 32))
(declare-const symbol_12 (_ BitVec 32))
(declare-const symbol_8 (_ BitVec 32))
(declare-const symbol_129 (_ BitVec 32))
(declare-const symbol_114 (_ BitVec 32))
(declare-const symbol_76 (_ BitVec 32))
(declare-const symbol_70 (_ BitVec 32))
(assert (= symbol_135 (_ bv3 32)))
(assert (not (not (= symbol_135 (_ bv1 32)))))
(assert (not (not (= symbol_133 (_ bv1 32)))))
(assert (not (not (= symbol_131 (_ bv1 32)))))
(assert (not (not (= symbol_129 (_ bv1 32)))))
(assert (not (not (= symbol_127 (_ bv1 32)))))
(assert (not (not (= symbol_125 (_ bv1 32)))))
(assert (not (not (= symbol_122 (_ bv1 32)))))
(assert (not (not (= symbol_120 (_ bv1 32)))))
(assert (not (not (= symbol_118 (_ bv1 32)))))
(assert (not (not (= symbol_116 (_ bv1 32)))))
(assert (not (not (= symbol_114 (_ bv1 32)))))
(assert (not (not (= symbol_112 (_ bv1 32)))))
(assert (not (not (= symbol_110 (_ bv1 32)))))
(assert (not (not (= symbol_108 (_ bv1 32)))))
(assert (not (not (= symbol_106 (_ bv1 32)))))
(assert (not (not (= symbol_104 (_ bv1 32)))))
(assert (not (not (= symbol_102 (_ bv1 32)))))
(assert (not (not (= symbol_100 (_ bv1 32)))))
(assert (not (not (= symbol_98 (_ bv1 32)))))
(assert (not (not (= symbol_96 (_ bv1 32)))))
(assert (not (not (= symbol_94 (_ bv1 32)))))
(assert (not (not (= symbol_92 (_ bv1 32)))))
(assert (not (not (= symbol_90 (_ bv1 32)))))
(assert (not (not (= symbol_89 (_ bv1 32)))))
(assert (not (not (= symbol_86 (_ bv1 32)))))
(assert (not (not (= symbol_84 (_ bv1 32)))))
(assert (not (not (= symbol_82 (_ bv1 32)))))
(assert (not (not (= symbol_80 (_ bv1 32)))))
(assert (not (not (= symbol_78 (_ bv1 32)))))
(assert (not (not (= symbol_76 (_ bv1 32)))))
(assert (not (not (= symbol_75 (_ bv1 32)))))
(assert (not (not (= symbol_73 (_ bv1 32)))))
(assert (not (not (= symbol_70 (_ bv1 32)))))
(assert (not (not (= symbol_69 (_ bv1 32)))))
(assert (not (not (= symbol_67 (_ bv1 32)))))
(assert (not (not (= symbol_65 (_ bv1 32)))))
(assert (not (not (= symbol_63 (_ bv1 32)))))
(assert (not (not (= symbol_61 (_ bv1 32)))))
(assert (not (not (= symbol_60 (_ bv1 32)))))
(assert (not (not (= symbol_57 (_ bv1 32)))))
(assert (not (not (= symbol_56 (_ bv1 32)))))
(assert (not (not (= symbol_53 (_ bv1 32)))))
(assert (not (not (= symbol_52 (_ bv1 32)))))
(assert (not (not (= symbol_50 (_ bv1 32)))))
(assert (not (not (= symbol_47 (_ bv1 32)))))
(assert (not (not (= symbol_45 (_ bv1 32)))))
(assert (not (not (= symbol_44 (_ bv1 32)))))
(assert (not (not (= symbol_42 (_ bv1 32)))))
(assert (not (not (= symbol_40 (_ bv1 32)))))
(assert (not (not (= symbol_39 (_ bv1 32)))))
(assert (not (not (= symbol_36 (_ bv1 32)))))
(assert (not (not (= symbol_34 (_ bv1 32)))))
(assert (not (not (= symbol_32 (_ bv1 32)))))
(assert (not (not (= symbol_30 (_ bv1 32)))))
(assert (not (not (= symbol_28 (_ bv1 32)))))
(assert (not (not (= symbol_26 (_ bv1 32)))))
(assert (not (not (= symbol_24 (_ bv1 32)))))
(assert (not (not (= symbol_22 (_ bv1 32)))))
(assert (not (not (= symbol_20 (_ bv1 32)))))
(assert (not (not (= symbol_18 (_ bv1 32)))))
(assert (not (not (= symbol_16 (_ bv1 32)))))
(assert (not (not (= symbol_14 (_ bv1 32)))))
(assert (not (not (= symbol_12 (_ bv1 32)))))
(assert (not (not (= symbol_10 (_ bv1 32)))))
(assert (not (not (= symbol_8 (_ bv1 32)))))
(assert (not (not (= symbol_6 (_ bv1 32)))))
(assert (not (not (= symbol_3 (_ bv1 32)))))
(assert (not (not (= symbol_1 (_ bv1 32)))))
(assert (not (not (= symbol_0 (_ bv1 32)))))
(check-sat)